p cnf 91 377
10 11 12 26 -27 34 0
12 -31 58 -73 -78 79 0
-14 -31 57 -73 78 79 0
-3 -16 -51 67 91 0
-3 -16 -51 -89 91 0
-5 -6 52 62 82 0
7 9 46 -47 64 0
7 42 45 46 60 0
7 -47 -48 55 64 0
-8 -42 45 46 -60 0
20 -38 41 53 -70 0
25 32 33 56 59 0
29 -30 -31 57 -73 0
10 11 26 -27 34 0
13 -31 57 -78 -79 0
45 46 60 70 83 0
1 -32 56 -62 0
1 42 60 -87 0
-1 -70 -83 -88 0
2 24 -35 -61 0
3 4 19 -51 0
3 4 23 56 0
3 -50 51 -68 0
-3 -23 50 -89 0
4 -61 78 84 0
-4 -19 -63 -78 0
8 -10 -70 -88 0
9 46 -47 64 0
10 20 21 22 0
10 20 22 -69 0
-11 -58 76 80 0
-12 58 78 -79 0
13 49 67 85 0
13 67 85 91 0
-14 -15 -31 58 0
-14 30 57 76 0
-16 -49 -50 90 0
-16 -50 68 -89 0
-17 20 22 71 0
18 39 41 48 0
-18 -19 -38 -41 0
-19 -51 -81 -85 0
20 21 -77 88 0
20 -69 -77 88 0
21 22 70 88 0
-21 42 83 88 0
25 -29 30 -73 0
-35 36 63 82 0
38 53 54 -72 0
40 -43 46 -87 0
-48 70 -71 72 0
1 42 -60 -83 0
-3 -23 -51 67 0
-4 -61 78 -84 0
-5 52 -63 84 0
-8 45 48 55 0
10 -27 -34 -57 0
12 13 79 -84 0
-16 -19 67 91 0
-17 -53 71 -72 0
19 32 34 59 0
21 69 -72 88 0
22 41 -53 70 0
-23 -51 -89 91 0
24 -35 59 -61 0
29 30 57 -73 0
-47 -48 55 72 0
-69 70 -72 88 0
1 2 -33 0
1 2 56 0
1 24 -32 0
1 -42 -83 0
1 45 70 0
2 -5 -74 0
-2 -5 -6 0
3 -16 59 0
3 -27 -56 0
-3 4 16 0
-3 4 -78 0
-3 66 89 0
4 -56 61 0
4 -61 -82 0
4 67 68 0
4 -67 89 0
5 -36 63 0
6 -37 63 0
7 9 64 0
-7 -8 -45 0
-7 -8 -46 0
8 -46 47 0
-8 -9 -46 0
-8 -39 -43 0
-8 46 87 0
9 40 45 0
10 -21 22 0
10 -26 57 0
10 -34 -57 0
10 -60 83 0
10 -69 -72 0
-10 26 28 0
-10 -26 28 0
-10 -26 -59 0
11 12 -28 0
11 -19 -28 0
11 27 57 0
11 76 -80 0
-12 -15 -58 0
13 49 57 0
13 85 91 0
13 86 89 0
-13 66 90 0
14 -15 57 0
-14 58 -73 0
17 19 39 0
17 23 40 0
17 -44 -71 0
-17 -23 25 0
-17 44 -77 0
18 46 81 0
-18 -19 -40 0
-18 -23 -54 0
-18 -23 -55 0
-18 -47 -64 0
19 -33 -74 0
19 41 42 0
19 54 64 0
19 -76 -80 0
-19 25 80 0
-19 -79 84 0
-19 86 89 0
-20 -21 69 0
-20 -22 72 0
-21 70 -77 0
-21 70 -88 0
22 53 -55 0
-22 -41 -53 0
-22 72 -88 0
23 39 60 0
23 -50 51 0
23 64 -80 0
23 74 -75 0
-23 24 -34 0
-23 -26 30 0
-23 -28 34 0
-23 -40 -43 0
-23 -86 91 0
-24 -25 -59 0
-24 35 -59 0
25 -32 -56 0
-25 -26 59 0
-25 -27 -34 0
26 28 31 0
26 -28 31 0
-28 -33 -34 0
29 -31 -36 0
-31 58 -76 0
32 -56 61 0
-32 -33 -56 0
-32 56 59 0
35 -56 -59 0
-35 -56 -59 0
36 -37 -63 0
36 -61 62 0
37 62 -63 0
38 69 -77 0
-38 47 -54 0
-38 54 72 0
-39 -48 -55 0
40 43 46 0
41 -54 71 0
-42 60 -87 0
46 70 -88 0
-46 47 -64 0
-49 51 -68 0
51 -81 85 0
51 -85 -91 0
-53 55 72 0
-54 70 72 0
56 -61 65 0
58 79 -80 0
65 74 82 0
66 86 -90 0
-66 86 90 0
-78 82 -84 0
85 -89 91 0
-85 90 -91 0
1 8 0
1 24 0
1 -52 0
1 -59 0
1 69 0
-1 -5 0
-1 15 0
-1 -22 0
-1 24 0
-1 32 0
-1 -59 0
-1 65 0
2 3 0
2 6 0
-2 -5 0
-2 -6 0
-2 35 0
3 16 0
3 24 0
3 -50 0
3 -82 0
3 -87 0
3 89 0
-3 -4 0
-3 45 0
-3 51 0
-3 90 0
4 -52 0
4 63 0
-4 5 0
5 -52 0
5 -62 0
5 78 0
5 -78 0
5 -82 0
-5 -6 0
-5 -36 0
-5 63 0
-5 -65 0
-5 78 0
6 -62 0
6 -82 0
-6 30 0
-6 59 0
-6 61 0
-6 65 0
7 9 0
7 -48 0
7 55 0
7 -87 0
-7 -42 0
-7 55 0
-7 -60 0
-7 87 0
8 9 0
8 -10 0
8 -45 0
8 -46 0
8 47 0
8 -48 0
8 55 0
8 83 0
8 86 0
-8 -9 0
-8 -55 0
-8 -64 0
-8 -72 0
-8 -83 0
-8 88 0
-8 -88 0
9 -47 0
-9 43 0
-9 -45 0
-9 48 0
10 12 0
10 -70 0
10 -72 0
10 -77 0
10 83 0
-10 -12 0
-10 15 0
-10 27 0
-10 56 0
-10 -59 0
-10 -70 0
-10 -88 0
11 15 0
11 -34 0
-11 -14 0
-11 -57 0
-11 -79 0
12 14 0
12 28 0
12 82 0
-12 -13 0
-12 31 0
-12 73 0
-12 -78 0
-12 79 0
-12 -83 0
13 -16 0
13 -31 0
13 84 0
13 -90 0
13 91 0
-13 -49 0
-13 57 0
-13 -67 0
-13 -85 0
14 31 0
14 -57 0
14 -58 0
14 -63 0
14 73 0
14 -78 0
14 -79 0
-14 15 0
15 25 0
15 -29 0
15 31 0
15 -57 0
15 -58 0
-15 29 0
-15 76 0
16 49 0
16 50 0
-16 68 0
17 18 0
17 21 0
17 44 0
17 45 0
-17 -40 0
-17 -44 0
18 47 0
18 60 0
18 64 0
-18 -60 0
-18 81 0
-18 -81 0
19 -30 0
19 -36 0
19 47 0
19 56 0
19 60 0
19 -65 0
19 -68 0
19 69 0
19 74 0
19 85 0
19 -91 0
-19 -27 0
-19 30 0
-19 36 0
-19 37 0
-19 40 0
-19 -44 0
-19 -48 0
-19 -51 0
-19 -53 0
-19 56 0
-19 -60 0
-19 -86 0
-19 88 0
-19 -89 0
20 -70 0
20 81 0
-20 70 0
-20 77 0
21 -42 0
21 -72 0
21 -77 0
21 -88 0
-21 -72 0
22 -41 0
22 -44 0
22 -69 0
22 88 0
-22 53 0
-22 -71 0
-22 72 0
23 27 0
23 -30 0
23 32 0
23 -36 0
23 41 0
23 42 0
23 50 0
23 59 0
23 -59 0
23 -65 0
23 68 0
